(set-logic ALL)
(declare-var x (_ BitVec 32))
(declare-var m (_ BitVec 32))
(declare-var n (_ BitVec 32))
(declare-var x! (_ BitVec 32))
(declare-var m! (_ BitVec 32))
(declare-var n! (_ BitVec 32))
(synth-fun inv-f((parameter0 (_ BitVec 32))(parameter1 (_ BitVec 32))(parameter2 (_ BitVec 32)))Bool) 
(constraint (=> (and (= x (_ bv0 32)) (= m (_ bv0 32)) )(inv-f x m n )))
(constraint (=> (and (inv-f x m n ) (and (and (and (bvult x n) (or (= m! x) (= m! m) ) ) (= n! n) ) (= x! (bvadd x (_ bv1 32))) ) )(inv-f x! m! n! )))
(constraint (=> (inv-f x m n )(and (or (bvuge m (_ bv0 32)) (bvule n (_ bv0 32)) ) (or (bvult m n) (bvule n (_ bv0 32)) ) )))
(check-synth)

